
Gurobi 12.0.2 (win64) logging started Thu Jun  5 16:20:30 2025

Set parameter LogFile to value "C:\Ioana\_uni\honours\slp\algorithm\Main_files\results\others\neuro_new1\Task_353_Sample001_irr_gurobi.log"
Gurobi Optimizer version 12.0.2 build v12.0.2rc0 (win64 - Windows 11.0 (26100.2))

CPU model: Intel(R) Core(TM) Ultra 5 125H, instruction set [SSE2|AVX|AVX2]
Thread count: 14 physical cores, 18 logical processors, using up to 18 threads

Non-default parameters:
TimeLimit  2200

Optimize a model with 47226 rows, 34492 columns and 146679 nonzeros
Model fingerprint: 0x0e06f112
Variable types: 17247 continuous, 17245 integer (17245 binary)
Coefficient statistics:
  Matrix range     [1e-04, 8e+04]
  Objective range  [1e-04, 3e+00]
  Bounds range     [1e+00, 1e+03]
  RHS range        [1e+00, 1e+00]
Found heuristic solution: objective 0.0356341
Presolve removed 46629 rows and 34016 columns
Presolve time: 0.39s
Presolved: 597 rows, 476 columns, 1603 nonzeros
Variable types: 236 continuous, 240 integer (240 binary)

Root relaxation: objective 1.120166e-04, 58 iterations, 0.00 seconds (0.00 work units)

    Nodes    |    Current Node    |     Objective Bounds      |     Work
 Expl Unexpl |  Obj  Depth IntInf | Incumbent    BestBd   Gap | It/Node Time

     0     0    0.00011    0    6    0.03563    0.00011   100%     -    0s
     0     0    0.02586    0    3    0.03563    0.02586  27.4%     -    0s
     0     0    0.02587    0    1    0.03563    0.02587  27.4%     -    0s
     0     0    0.02587    0    6    0.03563    0.02587  27.4%     -    0s
     0     0    0.03394    0    5    0.03563    0.03394  4.74%     -    0s

Cutting planes:
  Learned: 1
  Gomory: 1
  Cover: 1
  Network: 1

Explored 1 nodes (103 simplex iterations) in 0.49 seconds (0.30 work units)
Thread count was 18 (of 18 available processors)

Solution count 1: 0.0356341 

Optimal solution found (tolerance 1.00e-04)
Best objective 3.563411257646e-02, best bound 3.563411257646e-02, gap 0.0000%

Gurobi 12.0.2 (win64) logging started Fri Jun  6 16:50:21 2025

Set parameter LogFile to value "C:\Ioana\_uni\honours\slp\algorithm\Main_files\results\others\neuro_new1\Task_353_Sample001_irr_gurobi.log"
Gurobi Optimizer version 12.0.2 build v12.0.2rc0 (win64 - Windows 11.0 (26100.2))

CPU model: Intel(R) Core(TM) Ultra 5 125H, instruction set [SSE2|AVX|AVX2]
Thread count: 14 physical cores, 18 logical processors, using up to 18 threads

Non-default parameters:
TimeLimit  2200

Optimize a model with 47226 rows, 34492 columns and 146679 nonzeros
Model fingerprint: 0x0e06f112
Variable types: 17247 continuous, 17245 integer (17245 binary)
Coefficient statistics:
  Matrix range     [1e-04, 8e+04]
  Objective range  [1e-04, 3e+00]
  Bounds range     [1e+00, 1e+03]
  RHS range        [1e+00, 1e+00]
Found heuristic solution: objective 0.0356341
Presolve removed 46629 rows and 34016 columns
Presolve time: 0.24s
Presolved: 597 rows, 476 columns, 1603 nonzeros
Variable types: 236 continuous, 240 integer (240 binary)

Root relaxation: objective 1.120166e-04, 58 iterations, 0.00 seconds (0.00 work units)

    Nodes    |    Current Node    |     Objective Bounds      |     Work
 Expl Unexpl |  Obj  Depth IntInf | Incumbent    BestBd   Gap | It/Node Time

     0     0    0.00011    0    6    0.03563    0.00011   100%     -    0s
     0     0    0.02586    0    3    0.03563    0.02586  27.4%     -    0s
     0     0    0.02587    0    1    0.03563    0.02587  27.4%     -    0s
     0     0    0.02587    0    6    0.03563    0.02587  27.4%     -    0s
     0     0    0.03394    0    5    0.03563    0.03394  4.74%     -    0s

Cutting planes:
  Learned: 1
  Gomory: 1
  Cover: 1
  Network: 1

Explored 1 nodes (103 simplex iterations) in 0.29 seconds (0.30 work units)
Thread count was 18 (of 18 available processors)

Solution count 1: 0.0356341 

Optimal solution found (tolerance 1.00e-04)
Best objective 3.563411257646e-02, best bound 3.563411257646e-02, gap 0.0000%
